17
28
0
13
0
16
11
16
11
11
48
33
0
0
30
39
20
19
36
26
29
22
26
73
0
48
11
46
0
15
10
22
0
34
40
26
0
0
16
24
21
20
16
12
16
53
19
20
22
0
12
29
25
35
0
17
14
20
0
20
30
54
0
19
20
22
29
20
0
24
31
0
13
0
15
11
0
13
11
13
40
0
0
25
0
36
13
32
52
27
20
25
21
0
0
15
0
0
0
0
